4585800
81,98,68,3,72,79,53,91,93,77,21,96,37,63,9,29,40,71,5,10,58,85,18,95,80,64,59,1,23,14,75,47,65,92,24,88,8,39,84,66,26,90,43,22,51,12,34,15,78,25,73,16,86,87,62,55,82,45,52,50,38,49,74,42,2,46,7,20,4,33,83,35,89,28,19,17,76,30,13,70,60,69,36,27,56,32,57,6,99,97,44,94,54,61,41,67,11,31,48